data/exact/exact_036.gr
p tdp 37 68
6 9
6 5
6 7
6 4
6 8
9 8
9 7
1 3
1 2
1 4
1 37
3 4
3 2
10 11
10 12
10 13
10 37
11 13
11 12
22 23
22 19
22 20
22 24
22 21
23 25
23 24
5 4
5 7
28 29
28 30
28 31
29 31
29 30
24 26
24 27
24 25
26 25
26 27
33 36
33 32
33 35
33 34
33 31
36 35
36 34
8 7
15 16
15 18
15 13
15 14
15 17
16 17
16 18
16 14
25 27
30 31
31 32
34 35
34 32
19 21
19 20
19 37
32 37
2 4
17 18
12 13
13 14
20 21
