solutions/best/exact/exact_036.sol
6
4
1
2
37
7
4
6
7
8
13
10
11
37
16
13
15
16
17
22
19
20
37
25
22
24
25
26
31
28
29
37
34
31
33
34
35
0
